p cnf 10 37
-4 -3 -5 0
-4 10 -3 0
-8 -6 5 0
-2 -1 -7 0
-2 -9 -3 0
9 -1 10 0
9 2 -5 0
-9 3 -10 0
4 7 3 0
6 -10 -5 0
-1 -7 -8 0
-8 -3 -2 0
-10 -2 4 0
-10 -9 4 0
-10 8 -3 0
3 -9 -4 0
-8 6 -1 0
-8 -4 2 0
-1 -4 6 0
5 2 -7 0
-3 -4 -6 0
8 -1 -2 0
-7 10 4 0
-1 4 -6 0
-10 -9 5 0
-2 8 6 0
-1 6 -8 0
-9 -8 6 0
-2 -10 -3 0
8 3 2 0
-3 7 -6 0
5 2 -10 0
7 4 8 0
1 -5 6 0
5 3 -2 0
-1 2 10 0
5 1 6 0
